p cnf 42 114
a 18 10 0
e 1 2 3 4 5 6 7 8 9 11 12 13 14 15 16 17 19 20 21 22 23 24 25 26 27 28 29 30 31 32 33 34 35 36 37 38 39 40 41 42 0
-4 -2 0
-4 -3 0
2 3 4 0
-6 4 0
-6 -5 0
-4 5 6 0
-7 -1 0
-7 -6 0
1 6 7 0
-9 7 0
-9 8 0
-7 -8 9 0
-9 -10 -11 0
9 10 -11 0
-9 10 11 0
9 -10 11 0
14 12 0
14 13 0
-12 -13 -14 0
-15 -5 0
-15 14 0
5 -14 15 0
16 -15 0
16 -15 0
15 -16 0
-8 12 -17 0
8 -12 -17 0
-8 -12 17 0
8 12 17 0
4 -18 -19 0
-4 18 -19 0
4 18 19 0
-4 -18 19 0
20 17 0
20 -19 0
-17 19 -20 0
-21 -12 0
-21 12 0
22 -8 0
22 -21 0
8 21 -22 0
23 9 0
23 -22 0
-9 22 -23 0
24 -19 0
24 -14 0
19 14 -24 0
-25 -23 0
-25 24 0
23 -24 25 0
-26 -20 0
-26 25 0
20 -25 26 0
27 4 0
27 12 0
-4 -12 -27 0
-28 -3 0
-28 27 0
3 -27 28 0
26 -28 -29 0
-26 28 -29 0
26 28 29 0
-26 -28 29 0
30 16 0
30 29 0
-16 -29 -30 0
31 3 0
31 1 0
-3 -1 -31 0
-30 31 -32 0
30 -31 -32 0
-30 -31 32 0
30 31 32 0
-34 2 0
-34 -33 0
-2 33 34 0
-33 13 -35 0
33 -13 -35 0
-33 -13 35 0
33 13 35 0
36 34 0
36 35 0
-34 -35 -36 0
-37 -15 0
-37 8 0
15 -8 37 0
-38 -36 0
-38 -37 0
36 37 38 0
27 -15 -39 0
-27 15 -39 0
27 15 39 0
-27 -15 39 0
38 -39 -40 0
-38 39 -40 0
38 39 40 0
-38 -39 40 0
41 -32 0
41 -40 0
32 40 -41 0
-42 11 0
-42 -41 0
-11 41 42 0
13 1 -6 -23 28 -33 -35 0
-36 -22 40 38 -6 41 -8 0
8 -40 -33 -5 41 0
-5 -34 39 8 35 0
-37 -39 9 41 -33 0
42 2 7 29 -13 -38 0
-3 26 23 -12 38 -15 -24 0
14 25 10 3 27 0
32 18 26 40 -17 0
38 13 -31 0
42 0
